% Generado automaticamente desde C:/Users/andres/Desktop/SEPTIMO SEMESTRE/ADAII/proyecto_final/Proyecto-Optimizacion-ADA2/BateriaCasosPropios-txt/Prueba3.txt

n = 50;
m = 5;
ct = 50.0;
maxMovs = 40.0;
v = [0.0, 0.25, 0.5, 0.75, 1.0];
p = [10, 10, 10, 10, 10];
s = [| 5, 3, 2 | 5, 3, 2 | 5, 3, 2 | 5, 3, 2 | 5, 3, 2 |];
